0 39390 
1 35830 
2 35440 
3 35038 
4 34566 
5 34478 
6 34380 
7 33756 
8 33614 
9 32144 
10 30610 
11 30166 
12 30158 
13 29878 
14 29476 
15 29404 
16 29380 
17 27682 
18 27642 
19 27122 
20 27098 
21 24562 
22 23702 
23 22574 
24 22478 
25 21888 
26 19124 
27 19100 
28 18764 
29 17318 
30 17102 
31 15926 
32 13760 
33 13632 
34 13300 
35 13150 
36 12556 
37 12258 
38 11694 
39 11358 
40 11334 
41 9990 
42 9942 
43 9742 
44 9742 

